coords = array2d(1..39, 1..2, [737, 861, 691, 270, 474, 792, 976, 350, 516,
    908, 805, 522, 49, 514, 435, 789, 278, 663, 771, 216, 456, 250,
    163, 855, 544, 853, 621, 722, 362, 342, 633, 585, 70, 376, 628,
    880, 659, 565, 466, 722, 96, 512, 247, 470, 485, 119, 986, 245,
    993, 821, 787, 135, 950, 200, 469, 447, 780, 141, 653, 821, 293,
    517, 137, 728, 288, 44, 255, 883, 223, 712, 903, 236, 980, 550,
    22, 806, 474, 510]);

n = 39;

